SPARKNaCl/why3-z3/sparknacl-aes.adb_26_21_postcondition_1.smt2
;; produced by z3_gnatprove.drv ;;
(set-info :smt-lib-version 2.5)
(set-info :source |VC generated by SPARK 2014|)
(set-info :category industrial)
(set-info :status unknown)
;;; generated by SMT-LIB2 driver
;;; SMT-LIB2 driver: bit-vectors, common part
;;; SMT-LIB2: integer arithmetic
(declare-datatypes ()
  ((int__ref (int__refqtmk (int__content Int)))))

(declare-sort byte 0)

(declare-datatypes ()
  ((byte__init_wrapper
   (byte__init_wrapperqtmk (rec__value byte)(us_attr__init Bool)))))

(declare-sort map1 0)

(declare-datatypes ()
  ((map__ref (map__refqtmk (map__content map1)))))

;; "has_bounds"
(declare-fun has_bounds (map1
  Int
  Int) Bool)

;; "get"
(declare-fun get (map1
  Int) byte__init_wrapper)

;; "slide"
(declare-fun slide (map1
  Int
  Int) map1)

;; "slide_eq"
(assert
  (forall ((a map1) (first Int))
    (! (= (slide a first first) a) :pattern ((slide a first first)) )))

;; "slide_def"
(assert
  (forall ((a map1) (old_first Int) (new_first Int))
    (! (and
         (forall ((i Int))
           (! (= (get (slide a old_first new_first) i) (get
                                                         a
                                                         (- i (- new_first old_first)))) :pattern (
           (get
             (slide a old_first new_first)
             i)) ))
         (forall ((new_last Int))
           (! (=>
                (has_bounds a old_first (- new_last (- new_first old_first)))
                (has_bounds (slide a old_first new_first) new_first new_last)) :pattern (
           (has_bounds
             (slide a old_first new_first)
             new_first
             new_last)) ))) :pattern ((slide a old_first new_first)) )))

;; "slice"
(declare-fun slice (map1
  Int
  Int) map1)

;; "slice_eq"
(assert
  (forall ((a map1) (f Int) (l Int))
    (! (=> (has_bounds a f l) (= (slice a f l) a)) :pattern ((slice a f l)
    (has_bounds a f l)) )))

;; "slice_slice"
(assert
  (forall ((a map1) (f1 Int) (l1 Int) (f2 Int) (l2 Int))
    (! (=>
         (and (<= f1 f2) (<= l2 l1))
         (= (slice (slice a f1 l1) f2 l2) (slice a f2 l2))) :pattern (
    (slice
      (slice a f1 l1)
      f2
      l2)) )))

;; "slice_def"
(assert
  (forall ((a map1) (f Int) (l Int))
    (! (forall ((i Int))
         (! (=> (and (<= f i) (<= i l)) (= (get (slice a f l) i) (get a i))) :pattern (
         (get
           (slice a f l)
           i)) :pattern ((get a i)) )) :pattern ((slice a f l)) )))

;; "slice_has_bounds"
(assert
  (forall ((a map1) (f Int) (l Int))
    (! (has_bounds (slice a f l) f l) :pattern ((has_bounds
                                                  (slice a f l)
                                                  f
                                                  l)) )))

(declare-sort u32 0)

;; "to_rep"
(declare-fun to_rep (u32) (_ BitVec 32))

;; "of_rep"
(declare-fun of_rep ((_ BitVec 32)) u32)

;; "inversion_axiom"
(assert
  (forall ((x u32)) (! (= (of_rep (to_rep x)) x) :pattern ((to_rep x)) )))

;; "range_axiom"
(assert true)

;; "coerce_axiom"
(assert
  (forall ((x (_ BitVec 32)))
    (! (= (to_rep (of_rep x)) x) :pattern ((to_rep (of_rep x))) )))

(declare-sort map2 0)

;; "has_bounds"
(declare-fun has_bounds1 (map2
  Int
  Int) Bool)

;; "get"
(declare-fun get1 (map2
  Int) u32)

(declare-const state map2)

;; "to_rep"
(declare-fun to_rep1 (byte) (_ BitVec 8))

;; "of_rep"
(declare-fun of_rep1 ((_ BitVec 8)) byte)

;; "inversion_axiom"
(assert
  (forall ((x byte)) (! (= (of_rep1 (to_rep1 x)) x) :pattern ((to_rep1 x)) )))

;; "range_axiom"
(assert true)

;; "coerce_axiom"
(assert
  (forall ((x (_ BitVec 8)))
    (! (= (to_rep1 (of_rep1 x)) x) :pattern ((to_rep1 (of_rep1 x))) )))

;; "__is_initialized"
(define-fun us_is_initialized ((temp___expr_809 map1)) Bool
  (forall ((temp___810 Int))
    (=>
      (and (<= 0 temp___810) (<= temp___810 3))
      (= (us_attr__init (get temp___expr_809 temp___810)) true))))

;; "__is_initialized"
(define-fun us_is_initialized1 ((temp___expr_680 map1)) Bool
  (forall ((temp___681 Int))
    (=>
      (and (<= 0 temp___681) (<= temp___681 15))
      (= (us_attr__init (get temp___expr_680 temp___681)) true))))

(declare-sort tinteger_32B 0)

;; "tinteger_32B'int"
(declare-fun tinteger_32Bqtint (tinteger_32B) Int)

;; "tinteger_32B'axiom"
(assert
  (forall ((i tinteger_32B))
    (and
      (<= (- 2147483648) (tinteger_32Bqtint i))
      (<= (tinteger_32Bqtint i) 2147483647))))

;; "in_range"
(define-fun in_range ((x Int)) Bool
  (and (<= (- 2147483648) x) (<= x 2147483647)))

;; "to_rep"
(define-fun to_rep2 ((x tinteger_32B)) Int
  (tinteger_32Bqtint x))

;; "of_rep"
(declare-fun of_rep2 (Int) tinteger_32B)

;; "inversion_axiom"
(assert
  (forall ((x tinteger_32B))
    (! (= (of_rep2 (to_rep2 x)) x) :pattern ((to_rep2 x)) )))

;; "range_axiom"
(assert
  (forall ((x tinteger_32B))
    (! (in_range (to_rep2 x)) :pattern ((to_rep2 x)) )))

;; "coerce_axiom"
(assert
  (forall ((x Int))
    (! (=> (in_range x) (= (to_rep2 (of_rep2 x)) x)) :pattern ((to_rep2
                                                                 (of_rep2 x))) )))

(declare-datatypes ()
  ((t (tqtmk (rec__first tinteger_32B)(rec__last tinteger_32B)))))

;; "mk"
(declare-fun mk (Int
  Int) t)

;; "mk_def"
(assert
  (forall ((f Int) (l Int))
    (! (=>
         (in_range f)
         (=>
           (in_range l)
           (and
             (= (to_rep2 (rec__first (mk f l))) f)
             (= (to_rep2 (rec__last (mk f l))) l)))) :pattern ((mk f l)) )))

(declare-datatypes ()
  ((us_t (us_tqtmk (elts map1)(rt t)))))

;; "to_array"
(define-fun to_array ((a us_t)) map1
  (elts a))

;; "of_array"
(define-fun of_array ((a map1) (f Int) (l Int)) us_t
  (us_tqtmk a (mk f l)))

;; "first"
(define-fun first ((a us_t)) Int
  (to_rep2 (rec__first (rt a))))

;; "last"
(define-fun last ((a us_t)) Int
  (to_rep2 (rec__last (rt a))))

(declare-const output map1)

;; "output'unused"
(define-fun outputqtunused () map__ref
  (map__refqtmk output))

;; "Assume"
(assert (has_bounds output 0 15))

;; "Assume"
(assert (has_bounds1 state 0 3))

(declare-const output1 map1)

;; "output'unused"
(define-fun outputqtunused1 () map__ref
  (map__refqtmk output1))

(declare-const i Int)

(declare-const iqtunused int__ref)

;; "H"
(assert (= iqtunused (int__refqtmk i)))

;; "H"
(assert (= i 0))

(declare-const int__contentqtresultqtunused Int)

;; "H"
(assert (= int__contentqtresultqtunused i))

(declare-const o Bool)

;; "H"
(assert (= o (ite (<= i 3) true false)))

(declare-const infix_lseqqtresultqtunused Bool)

;; "H"
(assert (= infix_lseqqtresultqtunused o))

(declare-const int__contentqtresultqtunused1 Int)

;; "H"
(assert (= int__contentqtresultqtunused1 i))

(declare-const o1 Bool)

;; "H"
(assert (= o1 (ite (<= 0 i) true false)))

(declare-const infix_lseqqtresultqtunused1 Bool)

;; "H"
(assert (= infix_lseqqtresultqtunused1 o1))

(declare-const o2 Bool)

;; "H"
(assert (= o2 (and o1 o)))

(declare-const andbqtresultqtunused Bool)

;; "H"
(assert (= andbqtresultqtunused o2))

(declare-const temp___loop_entry_1484qtunused map1)

(declare-const map__contentqtresultqtunused map1)

(declare-const int__contentqtresultqtunused2 Int)

(declare-const o3 Int)

(declare-const infix_asqtresultqtunused Int)

(declare-const temp___1471 Int)

(declare-const infix_plqtresultqtunused Int)

(declare-const int__contentqtresultqtunused3 Int)

(declare-const temp___1470 Int)

(declare-const infix_asqtresultqtunused1 Int)

(declare-const map__contentqtresultqtunused1 map1)

(declare-const o4 map1)

(declare-const sliceqtresultqtunused map1)

(declare-const temp___1472 us_t)

(declare-const of_arrayqtresultqtunused us_t)

(declare-const o5 Int)

(declare-const firstqtresultqtunused Int)

(declare-const o6 map1)

(declare-const to_arrayqtresultqtunused map1)

(declare-const temp___1473 map1)

(declare-const slideqtresultqtunused map1)

(declare-const param__outputqtunused map__ref)

(declare-const map__refqtmkqtresultqtunused map__ref)

(declare-const int__contentqtresultqtunused4 Int)

(declare-const temp___idx_1476 Int)

(declare-const infix_asqtresultqtunused2 Int)

(declare-const int__contentqtresultqtunused5 Int)

(declare-const o7 Int)

(declare-const infix_asqtresultqtunused3 Int)

(declare-const temp___idx_1477 Int)

(declare-const infix_plqtresultqtunused1 Int)

(declare-const int__contentqtresultqtunused6 Int)

(declare-const o8 u32)

(declare-const getqtresultqtunused u32)

(declare-const o9 (_ BitVec 32))

(declare-const to_repqtresultqtunused (_ BitVec 32))

(declare-const param__output map1)

(declare-const param__outputqtunused1 map__ref)

(declare-const int__contentqtresultqtunused7 Int)

(declare-const o10 Int)

(declare-const infix_asqtresultqtunused4 Int)

(declare-const map__contentqtresultqtunused2 map1)

(declare-const temp___1478 map1)

(declare-const slideqtresultqtunused1 map1)

(declare-const int__contentqtresultqtunused8 Int)

(declare-const o11 Int)

(declare-const infix_asqtresultqtunused5 Int)

(declare-const o12 Int)

(declare-const infix_plqtresultqtunused2 Int)

(declare-const int__contentqtresultqtunused9 Int)

(declare-const o13 Int)

(declare-const infix_asqtresultqtunused6 Int)

(declare-const temp___1479 us_t)

(declare-const of_arrayqtresultqtunused1 us_t)

(declare-const usf map1)

(declare-const anyqtresultqtunused map1)

(declare-const output2 map1)

(declare-const outputqtunused2 map__ref)

(declare-const int__contentqtresultqtunused10 Int)

(declare-const o14 Int)

(declare-const infix_asqtresultqtunused7 Int)

(declare-const temp___1490 Int)

(declare-const infix_plqtresultqtunused3 Int)

(declare-const map__contentqtresultqtunused3 map1)

(declare-const o15 map1)

(declare-const sliceqtresultqtunused1 map1)

(declare-const temp___1491 us_t)

(declare-const of_arrayqtresultqtunused2 us_t)

(declare-const usfqtunused Bool)

(declare-const anyqtresultqtunused1 Bool)

(declare-const i1 Int)

(declare-const iqtunused1 int__ref)

(declare-const int__contentqtresultqtunused11 Int)

(declare-const infix_eqqtresultqtunused Bool)

;; "H"
(assert
  (ite (= o2 true)
    (and
      (= temp___loop_entry_1484qtunused output)
      (and
        (= map__contentqtresultqtunused output)
        (and
          (= int__contentqtresultqtunused2 i)
          (and
            (= o3 (* 4 i))
            (and
              (= infix_asqtresultqtunused o3)
              (and
                (= temp___1471 (+ o3 3))
                (and
                  (= infix_plqtresultqtunused temp___1471)
                  (and
                    (= int__contentqtresultqtunused3 i)
                    (and
                      (= temp___1470 (* 4 i))
                      (and
                        (= infix_asqtresultqtunused1 temp___1470)
                        (and
                          (= map__contentqtresultqtunused1 output)
                          (and
                            (=>
                              (<= temp___1470 temp___1471)
                              (and
                                (and (<= 0 temp___1470) (<= temp___1470 15))
                                (and (<= 0 temp___1471) (<= temp___1471 15))))
                            (and
                              (= o4 (slice output temp___1470 temp___1471))
                              (and
                                (= sliceqtresultqtunused o4)
                                (and
                                  (= temp___1472 (of_array
                                                   o4
                                                   temp___1470
                                                   temp___1471))
                                  (and
                                    (= of_arrayqtresultqtunused temp___1472)
                                    (and
                                      (= o5 temp___1470)
                                      (and
                                        (= firstqtresultqtunused o5)
                                        (and
                                          (= o6 o4)
                                          (and
                                            (= to_arrayqtresultqtunused 
                                            o6)
                                            (and
                                              (= temp___1473 (slide o6 o5 0))
                                              (and
                                                (= slideqtresultqtunused 
                                                temp___1473)
                                                (and
                                                  (ite (<= temp___1470 
                                                    temp___1471)
                                                    (and
                                                      (<= 0 3)
                                                      (= (- temp___1471 
                                                      temp___1470) (- 3 0)))
                                                    (< 3 0))
                                                  (and
                                                    (= param__outputqtunused 
                                                    (map__refqtmk
                                                      temp___1473))
                                                    (and
                                                      (= map__refqtmkqtresultqtunused 
                                                      (map__refqtmk
                                                        temp___1473))
                                                      (and
                                                        (= int__contentqtresultqtunused4 
                                                        i)
                                                        (and
                                                          (= temp___idx_1476 (* 4 
                                                          i))
                                                          (and
                                                            (= infix_asqtresultqtunused2 
                                                            temp___idx_1476)
                                                            (and
                                                              (= int__contentqtresultqtunused5 
                                                              i)
                                                              (and
                                                                (= o7 (* 4 
                                                                i))
                                                                (and
                                                                  (= 
                                                                  infix_asqtresultqtunused3 
                                                                  o7)
                                                                  (and
                                                                    (= 
                                                                    temp___idx_1477 (+ 
                                                                    o7 3))
                                                                    (and
                                                                    (= 
                                                                    infix_plqtresultqtunused1 
                                                                    temp___idx_1477)
                                                                    (and
                                                                    (= 
                                                                    int__contentqtresultqtunused6 
                                                                    i)
                                                                    (and
                                                                    (= 
                                                                    o8 
                                                                    (get1
                                                                    state
                                                                    i))
                                                                    (and
                                                                    (= 
                                                                    getqtresultqtunused 
                                                                    o8)
                                                                    (and
                                                                    (= 
                                                                    (to_rep
                                                                    o8) 
                                                                    o9)
                                                                    (and
                                                                    (= 
                                                                    to_repqtresultqtunused 
                                                                    o9)
                                                                    (and
                                                                    (= 
                                                                    param__outputqtunused1 
                                                                    (map__refqtmk
                                                                    param__output))
                                                                    (and
                                                                    (and
                                                                    (us_is_initialized
                                                                    param__output)
                                                                    (has_bounds
                                                                    param__output
                                                                    0
                                                                    3))
                                                                    (and
                                                                    (= 
                                                                    int__contentqtresultqtunused7 
                                                                    i)
                                                                    (and
                                                                    (= 
                                                                    o10 (* 4 
                                                                    i))
                                                                    (and
                                                                    (= 
                                                                    infix_asqtresultqtunused4 
                                                                    o10)
                                                                    (and
                                                                    (= 
                                                                    map__contentqtresultqtunused2 
                                                                    param__output)
                                                                    (and
                                                                    (= 
                                                                    temp___1478 
                                                                    (slide
                                                                    param__output
                                                                    0
                                                                    o10))
                                                                    (and
                                                                    (= 
                                                                    slideqtresultqtunused1 
                                                                    temp___1478)
                                                                    (and
                                                                    (= 
                                                                    int__contentqtresultqtunused8 
                                                                    i)
                                                                    (and
                                                                    (= 
                                                                    o11 (* 4 
                                                                    i))
                                                                    (and
                                                                    (= 
                                                                    infix_asqtresultqtunused5 
                                                                    o11)
                                                                    (and
                                                                    (= 
                                                                    o12 (+ 
                                                                    o11 3))
                                                                    (and
                                                                    (= 
                                                                    infix_plqtresultqtunused2 
                                                                    o12)
                                                                    (and
                                                                    (= 
                                                                    int__contentqtresultqtunused9 
                                                                    i)
                                                                    (and
                                                                    (= 
                                                                    o13 (* 4 
                                                                    i))
                                                                    (and
                                                                    (= 
                                                                    infix_asqtresultqtunused6 
                                                                    o13)
                                                                    (and
                                                                    (= 
                                                                    temp___1479 
                                                                    (of_array
                                                                    temp___1478
                                                                    o13
                                                                    o12))
                                                                    (and
                                                                    (= 
                                                                    of_arrayqtresultqtunused1 
                                                                    temp___1479)
                                                                    (and
                                                                    (forall 
                                                                    ((temp___1480 Int))
                                                                    (ite 
                                                                    (and
                                                                    (<= 
                                                                    temp___idx_1476 temp___1480)
                                                                    (<= temp___1480 
                                                                    temp___idx_1477))
                                                                    (= 
                                                                    (get
                                                                    usf
                                                                    temp___1480) 
                                                                    (get
                                                                    temp___1478
                                                                    temp___1480))
                                                                    (= 
                                                                    (get
                                                                    usf
                                                                    temp___1480) 
                                                                    (get
                                                                    output
                                                                    temp___1480))))
                                                                    (and
                                                                    (= 
                                                                    anyqtresultqtunused 
                                                                    usf)
                                                                    (and
                                                                    (= 
                                                                    outputqtunused2 
                                                                    (map__refqtmk
                                                                    output2))
                                                                    (and
                                                                    (= 
                                                                    output2 
                                                                    usf)
                                                                    (and
                                                                    (= 
                                                                    int__contentqtresultqtunused10 
                                                                    i)
                                                                    (and
                                                                    (= 
                                                                    o14 (* 4 
                                                                    i))
                                                                    (and
                                                                    (= 
                                                                    infix_asqtresultqtunused7 
                                                                    o14)
                                                                    (and
                                                                    (= 
                                                                    temp___1490 (+ 
                                                                    o14 3))
                                                                    (and
                                                                    (= 
                                                                    infix_plqtresultqtunused3 
                                                                    temp___1490)
                                                                    (and
                                                                    (= 
                                                                    map__contentqtresultqtunused3 
                                                                    output2)
                                                                    (and
                                                                    (=>
                                                                    (<= 0 
                                                                    temp___1490)
                                                                    (and
                                                                    (and
                                                                    (<= 0 0)
                                                                    (<= 0 15))
                                                                    (and
                                                                    (<= 0 
                                                                    temp___1490)
                                                                    (<= 
                                                                    temp___1490 15))))
                                                                    (and
                                                                    (= 
                                                                    o15 
                                                                    (slice
                                                                    output2
                                                                    0
                                                                    temp___1490))
                                                                    (and
                                                                    (= 
                                                                    sliceqtresultqtunused1 
                                                                    o15)
                                                                    (and
                                                                    (= 
                                                                    temp___1491 
                                                                    (of_array
                                                                    o15
                                                                    0
                                                                    temp___1490))
                                                                    (and
                                                                    (= 
                                                                    of_arrayqtresultqtunused2 
                                                                    temp___1491)
                                                                    (and
                                                                    (= 
                                                                    usfqtunused 
                                                                    (ite 
                                                                    (forall 
                                                                    ((temp___1492 Int))
                                                                    (=>
                                                                    (and
                                                                    (<= 0 temp___1492)
                                                                    (<= temp___1492 
                                                                    temp___1490))
                                                                    (= 
                                                                    (us_attr__init
                                                                    (get
                                                                    o15
                                                                    temp___1492)) true)))
                                                                    true
                                                                    false))
                                                                    (and
                                                                    (= 
                                                                    anyqtresultqtunused1 
                                                                    (ite 
                                                                    (forall 
                                                                    ((temp___1492 Int))
                                                                    (=>
                                                                    (and
                                                                    (<= 0 temp___1492)
                                                                    (<= temp___1492 
                                                                    temp___1490))
                                                                    (= 
                                                                    (us_attr__init
                                                                    (get
                                                                    o15
                                                                    temp___1492)) true)))
                                                                    true
                                                                    false))
                                                                    (and
                                                                    (= 
                                                                    iqtunused1 
                                                                    (int__refqtmk
                                                                    i1))
                                                                    (and
                                                                    (let ((temp___1498 
                                                                    (let ((temp___1497 (+ (* 4 
                                                                    i1) 3)))
                                                                    (of_array
                                                                    (slice
                                                                    output1
                                                                    0
                                                                    temp___1497)
                                                                    0
                                                                    temp___1497))))
                                                                    (forall 
                                                                    ((temp___1499 Int))
                                                                    (=>
                                                                    (and
                                                                    (<= 
                                                                    (first
                                                                    temp___1498) temp___1499)
                                                                    (<= temp___1499 
                                                                    (last
                                                                    temp___1498)))
                                                                    (= 
                                                                    (us_attr__init
                                                                    (get
                                                                    (to_array
                                                                    temp___1498)
                                                                    temp___1499)) true))))
                                                                    (and
                                                                    (= (and 
                                                                    (ite 
                                                                    (has_bounds
                                                                    output1
                                                                    0
                                                                    15)
                                                                    true
                                                                    false) 
                                                                    (ite 
                                                                    (and
                                                                    (<= 0 
                                                                    i1)
                                                                    (<= 
                                                                    i1 3))
                                                                    true
                                                                    false)) true)
                                                                    (and
                                                                    (= 
                                                                    int__contentqtresultqtunused11 
                                                                    i1)
                                                                    (and
                                                                    (= 
                                                                    infix_eqqtresultqtunused 
                                                                    (ite (= 
                                                                    i1 3)
                                                                    true
                                                                    false))
                                                                    (= 
                                                                    i1 3)))))))))))))))))))))))))))))))))))))))))))))))))))))))))))))))))))))))))))))))
    (= output1 output)))

;; Goal "def'vc"
;; File "sparknacl-aes.adb", line 21, characters 0-0
(assert
  (not (us_is_initialized1 output1)))

(check-sat)
